RT is False
Default write of storage_offers_DA.csv just to have a file (but constraint should be inactive)
Reading model...
...model read.
creating competitive generators file...
...competitive generators recorded.
Loading data...
.. day-ahead data with real-time VRE data read.
Compiling instance...
...instance created.
Creating Offer Mitigation (model will solve as dispatch if TRUE)...
NOTE: storage offers will not be mitigated
...storage offer mitigation file created
Converting model to MPEC...
...converted
NOTE: initial MIP solve with only storage competitive to get feasible solution
Solving...

Welcome to IBM(R) ILOG(R) CPLEX(R) Interactive Optimizer 12.9.0.0
  with Simplex, Mixed Integer & Barrier Optimizers
5725-A06 5725-A29 5724-Y48 5724-Y49 5724-Y54 5724-Y55 5655-Y21
Copyright IBM Corp. 1988, 2019.  All Rights Reserved.

Type 'help' for a list of available commands.
Type 'help' followed by a command name for more
information on commands.

CPLEX> Logfile 'cplex.log' closed.
Logfile 'C:\Users\llavin\Desktop\test826\logs\tmps6al6hyz.cplex.log' open.
CPLEX> New value for parallel optimization mode: -1
CPLEX> New value for emphasis for MIP optimization: 1
CPLEX> New value for mixed integer optimality gap tolerance: 0.01
CPLEX> New value for integrality tolerance: 1e-12
CPLEX> New value for deterministic time limit in ticks: 75000
CPLEX> Problem 'C:\Users\llavin\Desktop\test826\logs\tmp2yo_d10k.pyomo.lp' read.
Read time = 0.22 sec. (13.92 ticks)
CPLEX> Problem name         : C:\Users\llavin\Desktop\test826\logs\tmp2yo_d10k.pyomo.lp
Objective sense      : Maximize
Variables            :   53809  [Nneg: 1,  Box: 22004,  Free: 4464,
                                 Binary: 27340]
Objective nonzeros   :    9033
Linear constraints   :  123253  [Less: 41346,  Greater: 59096,  Equal: 22811]
  Nonzeros           :  293221
  RHS nonzeros       :   67495

Variables            : Min LB: -5000.000        Max UB: 1000000.       
Objective nonzeros   : Min   : 0.04166667       Max   : 2500.000       
Linear constraints   :
  Nonzeros           : Min   : 0.04166667       Max   : 1000000.       
  RHS nonzeros       : Min   : 0.04166667       Max   : 1000000.       
CPLEX> CPXPARAM_Parallel                                -1
CPXPARAM_Emphasis_MIP                            1
CPXPARAM_DetTimeLimit                            75000
CPXPARAM_MIP_Tolerances_MIPGap                   0.01
CPXPARAM_MIP_Tolerances_Integrality              9.9999999999999998e-13
Tried aggregator 4 times.
MIP Presolve eliminated 88668 rows and 18975 columns.
MIP Presolve added 3378 rows and 0 columns.
MIP Presolve modified 24865 coefficients.
Aggregator did 12986 substitutions.
Reduced MIP has 24977 rows, 21296 columns, and 71849 nonzeros.
Reduced MIP has 8419 binaries, 0 generals, 0 SOSs, and 0 indicators.
Presolve time = 0.33 sec. (192.44 ticks)
Probing fixed 380 vars, tightened 3948 bounds.
Probing time = 0.06 sec. (18.95 ticks)
Tried aggregator 2 times.
MIP Presolve eliminated 857 rows and 761 columns.
MIP Presolve modified 3043 coefficients.
Aggregator did 35 substitutions.
Reduced MIP has 24085 rows, 20500 columns, and 69264 nonzeros.
Reduced MIP has 8039 binaries, 0 generals, 0 SOSs, and 0 indicators.
Presolve time = 0.11 sec. (89.57 ticks)
Probing fixed 0 vars, tightened 255 bounds.
Probing time = 0.14 sec. (22.81 ticks)
Clique table members: 45123.
MIP emphasis: integer feasibility.
MIP search method: dynamic search.
Parallel mode: opportunistic, using up to 32 threads.
Root relaxation solution time = 0.39 sec. (586.34 ticks)

        Nodes                                         Cuts/
   Node  Left     Objective  IInf  Best Integer    Best Bound    ItCnt     Gap

      0     0        0.0000   104                      0.0000     4982         
*     0+    0                            0.0000        0.0000             0.00%
      0     0        cutoff              0.0000        0.0000     4982    0.00%
Elapsed time = 1.64 sec. (1279.95 ticks, tree = 0.01 MB, solutions = 1)

Root node processing (before b&c):
  Real time             =    1.66 sec. (1281.90 ticks)
Parallel b&c, 32 threads:
  Real time             =    0.00 sec. (0.00 ticks)
  Sync time (average)   =    0.00 sec.
  Wait time (average)   =    0.00 sec.
                          ------------
Total (root+branch&cut) =    1.66 sec. (1281.90 ticks)

Solution pool: 1 solution saved.

MIP - Integer optimal solution:  Objective =  1.9363142201e-09
Solution time =    1.72 sec.  Iterations = 4982  Nodes = 0
Deterministic time = 1282.06 ticks  (745.81 ticks/sec)

CPLEX> Incumbent solution written to file 'C:\Users\llavin\Desktop\test826\logs\tmpdco_n3z4.cplex.sol'.
CPLEX> NOTE: no warmstart specified for MIP iteration, default behavior is true
NOTE: resolving with all competitive generators using storage-only solution to warmstart
Solving...

Welcome to IBM(R) ILOG(R) CPLEX(R) Interactive Optimizer 12.9.0.0
  with Simplex, Mixed Integer & Barrier Optimizers
5725-A06 5725-A29 5724-Y48 5724-Y49 5724-Y54 5724-Y55 5655-Y21
Copyright IBM Corp. 1988, 2019.  All Rights Reserved.

Type 'help' for a list of available commands.
Type 'help' followed by a command name for more
information on commands.

CPLEX> Logfile 'cplex.log' closed.
Logfile 'C:\Users\llavin\Desktop\test826\logs\tmpzwkfux01.cplex.log' open.
CPLEX> New value for parallel optimization mode: -1
CPLEX> New value for emphasis for MIP optimization: 1
CPLEX> New value for mixed integer optimality gap tolerance: 0.01
CPLEX> New value for integrality tolerance: 1e-12
CPLEX> New value for deterministic time limit in ticks: 75000
CPLEX> Problem 'C:\Users\llavin\Desktop\test826\logs\tmp0d5_upzl.pyomo.lp' read.
Read time = 0.23 sec. (13.94 ticks)
CPLEX> MIP start file 'C:\Users\llavin\Desktop\test826\logs\tmp4i7mpep0.cplex.mst' read.
CPLEX> Problem name         : C:\Users\llavin\Desktop\test826\logs\tmp0d5_upzl.pyomo.lp
Objective sense      : Maximize
Variables            :   54529  [Nneg: 1,  Box: 22724,  Free: 4464,
                                 Binary: 27340]
Objective nonzeros   :    9729
Linear constraints   :  123253  [Less: 41346,  Greater: 59096,  Equal: 22811]
  Nonzeros           :  293221
  RHS nonzeros       :   67495

Variables            : Min LB: -5000.000        Max UB: 1000000.       
Objective nonzeros   : Min   : 0.04166667       Max   : 2500.000       
Linear constraints   :
  Nonzeros           : Min   : 0.04166667       Max   : 1000000.       
  RHS nonzeros       : Min   : 0.04166667       Max   : 1000000.       
CPLEX> CPXPARAM_Parallel                                -1
CPXPARAM_Emphasis_MIP                            1
CPXPARAM_DetTimeLimit                            75000
CPXPARAM_MIP_Tolerances_MIPGap                   0.01
CPXPARAM_MIP_Tolerances_Integrality              9.9999999999999998e-13
Warning:  No solution found from 1 MIP starts.
Retaining values of one MIP start for possible repair.
Tried aggregator 4 times.
MIP Presolve eliminated 88668 rows and 19695 columns.
MIP Presolve added 3378 rows and 0 columns.
MIP Presolve modified 24865 coefficients.
Aggregator did 12986 substitutions.
Reduced MIP has 24977 rows, 21296 columns, and 71849 nonzeros.
Reduced MIP has 8419 binaries, 0 generals, 0 SOSs, and 0 indicators.
Presolve time = 0.33 sec. (192.85 ticks)
Probing fixed 380 vars, tightened 3948 bounds.
Probing time = 0.08 sec. (18.95 ticks)
Tried aggregator 2 times.
MIP Presolve eliminated 857 rows and 761 columns.
MIP Presolve modified 3043 coefficients.
Aggregator did 35 substitutions.
Reduced MIP has 24085 rows, 20500 columns, and 69264 nonzeros.
Reduced MIP has 8039 binaries, 0 generals, 0 SOSs, and 0 indicators.
Presolve time = 0.11 sec. (89.58 ticks)
Probing fixed 0 vars, tightened 255 bounds.
Probing time = 0.14 sec. (22.81 ticks)
Clique table members: 45123.
MIP emphasis: integer feasibility.
MIP search method: dynamic search.
Parallel mode: opportunistic, using up to 32 threads.
Root relaxation solution time = 0.48 sec. (663.76 ticks)

        Nodes                                         Cuts/
   Node  Left     Objective  IInf  Best Integer    Best Bound    ItCnt     Gap

      0     0   123762.0650   335                 123762.0650     5830         
      0     0   119653.1735   272               Flowcuts: 175     6094         
      0     0   106896.7852   214                    Cuts: 69     6202         
      0     0   106772.0567   208                    Cuts: 20     6219         
Repair heuristic found nothing.
      0    24    92222.8957   198                    Cuts: 13     8168         
Elapsed time = 4.38 sec. (1975.65 ticks, tree = 0.02 MB, solutions = 0)
    570   107    58989.2322   139                 103740.6001    11713         
   1020   658    33820.5250   113                 103144.8372    26881         
   1679  1131      298.8526    76                 103144.8372    37001         
   2274  1464     9699.7660    62                 103144.8372    43172         
   2945  2050   -29066.4391    47                 103144.8372    54993         
   3605  2514    53604.6054    89                 103144.8372    75305         
   4241  2723      622.3652    67                 103144.8372    82257         
   4766  3291   -59013.9492    40                 103144.8372    94150         
   5339  3590    -4005.1589    42                 103144.8372   100638         
   7763  5119    infeasible                       103060.2968   147411         
Elapsed time = 21.55 sec. (5079.19 ticks, tree = 122.95 MB, solutions = 0)
  10014  7163   -61645.2268    70                  93596.9364   209494         
  12298  8672    36496.9285   102                  93596.9364   262026         
  14479 10207    infeasible                        93596.9364   323405         
  16571 11914    infeasible                        93596.9364   404957         
  18699 13709    23123.0194    80                  85164.7116   479492         
  20655 14142   -18967.2203    51                  85164.7116   499784         
  22734 16151    24037.2168    90                  85164.7116   611343         
  24978 16911 -1001610.0353    72                  85164.7116   644256         
  27285 18388    42401.7653    81                  85164.7116   707424         
  29440 20899    -4143.5859    86                  77503.2314   815706         
Elapsed time = 71.34 sec. (14620.34 ticks, tree = 270.06 MB, solutions = 0)
  31418 21411     5294.8150    58                  77503.2314   837985         
  33611 23618  -206798.4541    67                  77503.2314   957573         
  35718 24703  -181947.3324    55                  77503.2314  1018963         
  37785 25360   -14177.6308    26                  77503.2314  1050090         
  39976 27530    infeasible                        77503.2314  1178500         
  42227 29107   -31142.0087    43                  77503.2314  1258600         
  44296 29149  -470242.2443    86                  77503.2314  1260610         
  46325 30586   -63799.7144   132                  75584.3231  1339420         
  48442 33192    infeasible                        75584.3231  1482582         
  50697 33994  -347292.3956   215                  75584.3231  1525399         
Elapsed time = 123.91 sec. (24159.09 ticks, tree = 372.17 MB, solutions = 0)
  52834 33942     5119.0036    90                  75584.3231  1520199         
  54739 37004   -17438.6635   125                  75584.3231  1706855         
  56764 37191  -249799.6013   111                  75584.3231  1717030         
  58777 38337   -21424.4622    71                  75584.3231  1812895         
  60965 38915    infeasible                        75584.3231  1853565         
  63201 40988   -64848.4224    96                  68413.5045  1978008         
  65507 41682     2892.4170    41                  68413.5045  2021122         
  67684 42505     -235.4627    85                  68413.5045  2077691         
  69903 43721    infeasible                        68413.5045  2163182         
  72041 43915    infeasible                        68413.5045  2175265         
Elapsed time = 180.00 sec. (33701.39 ticks, tree = 447.45 MB, solutions = 0)
  74165 45268       16.4645    59                  68413.5045  2265290         
  76367 46520    infeasible                        68413.5045  2353916         
  78853 47465    -2121.5659    23                  68413.5045  2416260         
  81209 48673    -5017.0883    58                  68413.5045  2498936         
  83515 49218   -20687.8771    55                  68413.5045  2534540         
  85862 50384     -367.9810    20                  68413.5045  2599908         
  88440 52095    infeasible                        68413.5045  2689563         
  91071 54457    -1390.2136    36                  68413.5045  2779323         
  93774 53308    -2222.1824    25                  68413.5045  2736596         
  96499 55661    -5871.8092    18                  68413.5045  2818164         
Elapsed time = 294.39 sec. (43242.99 ticks, tree = 908.99 MB, solutions = 0)
  99347 56821    -1626.6106    24                  68413.5045  2858644         
 102315 57957    -2200.9984    24                  68413.5045  2891369         
 105221 57231     -580.8521    24                  68413.5045  2869759         
 108192 58734    -4297.5041    43                  68413.5045  2918474         
 111057 59606    -7470.7109   103                  68413.5045  2943734         
 113742 59383     -420.1844    19                  68413.5045  2937664         
 116359 61948    -2107.9693    24                  68413.5045  3028611         
 118779 63412     -459.1489    35                  68413.5045  3086495         
 121066 63811    -5524.4348    44                  68413.5045  3098844         
 122894 64561     -376.3989    19                  68413.5045  3134829         
Elapsed time = 380.89 sec. (52784.27 ticks, tree = 1429.29 MB, solutions = 0)
 123889 64339     -865.1901    19                  68413.5045  3122736         
 124154 68121    infeasible                        54679.7390  3292605         
 125619   765    43780.3556    56                  53948.2412  3320114         
 128484  1646    infeasible                        53073.8358  3362657         
 131514  2945    -4780.1948    22                  53073.8358  3403368         
 134879  4528     -433.2031    11                  53073.8358  3436296         
 138652  6354    -1201.5723    12                  53073.8358  3457355         
 142376  7906    -2136.2747    12                  53073.8358  3472150         
 145005  9701    -1714.2474    10                  53073.8358  3495655         
 148380 10543     -854.6124    11                  53073.8358  3513131         
Elapsed time = 432.94 sec. (63812.31 ticks, tree = 191.63 MB, solutions = 0)
 152070 11686    -3671.7774    14                  53073.8358  3532595         
 155697 13265     -854.6122    12                  53073.8358  3554706         
 158160 14635    -3683.7720    14                  53073.8358  3574828         
 161401 15692    infeasible                        53073.8358  3588644         
 165250 17152    -2093.0474    13                  53073.8358  3609938         
 169246 18331    -2481.6381    12                  53073.8358  3625147         
 172746 21169    infeasible                        53073.8358  3661451         
 176809 22033    -2095.0825    12                  53073.8358  3671676         
 180823 23771    -1453.4845    13                  53073.8358  3692510         
 184019 24688    -3541.7484    15                  53073.8358  3702986         
Elapsed time = 482.67 sec. (73351.64 ticks, tree = 309.66 MB, solutions = 0)
 187465 26083    -3056.0417    17                  53073.8358  3718243         

Cover cuts applied:  69
Implied bound cuts applied:  11
Flow cuts applied:  157
Mixed integer rounding cuts applied:  7

Root node processing (before b&c):
  Real time             =    2.92 sec. (1944.78 ticks)
Parallel b&c, 32 threads:
  Real time             =  480.49 sec. (73075.14 ticks)
  Sync time (average)   =    2.02 sec.
  Wait time (average)   =    0.26 sec.
                          ------------
Total (root+branch&cut) =  483.41 sec. (75019.92 ticks)


MIP - Deterministic time limit exceeded, no integer solution.
Current MIP best bound =  5.3073835806e+04 (gap is infinite)
Solution time =  483.44 sec.  Iterations = 3754009  Nodes = 188962 (29514)
Deterministic time = 75020.08 ticks  (155.18 ticks/sec)

CPLEX> CPLEX Error  1217: No solution exists.
No file written.
CPLEX> gap is infinite, so writing 0
Exporting results... 
